     Program PWSCF v.6.8 starts on  9Nov2021 at 16:46:39

     R & G space division:  proc/nbgrp/npool/nimage =       6

     Reading input from sto.scf.in

     Current dimensions of program PWSCF are:
     Max number of different atomic species (ntypx) = 10
     Max number of k-points (npk) =  40000
     Max angular momentum in pseudopotentials (lmaxx) =  4
     file Ti.pz-spn-kjpaw_psl.1.0.0.UPF: wavefunction(s)  3S 3P 3D renormalized
     file Sn.pz-dn-kjpaw_psl.0.2.UPF: wavefunction(s)  5P 4D renormalized
     file O.pz-n-kjpaw_psl.0.1.UPF: wavefunction(s)  2P renormalized

     IMPORTANT: XC functional enforced from input :
     Exchange-correlation= PBE
                           (   1   4   3   4   0   0   0)
     Any further DFT definition will be discarded
     Please, verify this is what you really want

     Message from routine setup:
     using ibrav=0 with symmetry is DISCOURAGED, use correct ibrav instead

     Subspace diagonalization in iterative solution of the eigenvalue problem:
     a serial algorithm will be used

     Using Slab Decomposition

     bravais-lattice index     =            0
     lattice parameter (alat)  =       7.2021  a.u.
     unit-cell volume          =     467.6493 (a.u.)^3
     number of atoms/cell      =            5
     number of atomic types    =            3
     number of electrons       =        44.00
     number of Kohn-Sham states=           22
     kinetic-energy cutoff     =      50.0000  Ry
     charge density cutoff     =     600.0000  Ry
     scf convergence threshold =      1.0E-10
     mixing beta               =       0.7000
     number of iterations used =            8  plain     mixing
     Exchange-correlation= PBE
                           (   1   4   3   4   0   0   0)

     celldm(1)=   7.202143  celldm(2)=   0.000000  celldm(3)=   0.000000
     celldm(4)=   0.000000  celldm(5)=   0.000000  celldm(6)=   0.000000

     crystal axes: (cart. coord. in units of alat)
               a(1) = (   1.004540   0.000000   0.000000 )
               a(2) = (   0.000000   1.004540   0.000000 )
               a(3) = (   0.000000   0.000000   1.240511 )

     reciprocal axes: (cart. coord. in units 2 pi/alat)
               b(1) = (  0.995481  0.000000  0.000000 )
               b(2) = (  0.000000  0.995481  0.000000 )
               b(3) = (  0.000000  0.000000  0.806119 )

     PseudoPot. # 1 for Ti read from file:
     ./Ti.pz-spn-kjpaw_psl.1.0.0.UPF
     MD5 check sum: d738bfca771ecfdd01037dc8ee1e6b9b
     Pseudo is Projector augmented-wave + core cor, Zval = 12.0
     Generated using &quot;atomic&quot; code by A. Dal Corso  v.6.2.2
     Shape of augmentation charge: PSQ
     Using radial grid of 1177 points,  6 beta functions with:
                l(1) =   0
                l(2) =   0
                l(3) =   1
                l(4) =   1
                l(5) =   2
                l(6) =   2
     Q(r) pseudized with 0 coefficients

     PseudoPot. # 2 for Sn read from file:
     ./Sn.pz-dn-kjpaw_psl.0.2.UPF
     MD5 check sum: 4ae5dc40354335ee230663518864dfb4
     Pseudo is Projector augmented-wave + core cor, Zval = 14.0
     Generated using "atomic" code by A. Dal Corso  v.5.0.2 svn rev. 9415
     Shape of augmentation charge: BESSEL
     Using radial grid of 1243 points,  6 beta functions with:
                l(1) =   0
                l(2) =   0
                l(3) =   1
                l(4) =   1
                l(5) =   2
                l(6) =   2
     Q(r) pseudized with 0 coefficients

     PseudoPot. # 3 for O  read from file:
     ./O.pz-n-kjpaw_psl.0.1.UPF
     MD5 check sum: 6b8961753bc530cd482b40fd8ffb4c91
     Pseudo is Projector augmented-wave + core cor, Zval =  6.0
     Generated using "atomic" code by A. Dal Corso  v.5.0.2 svn rev. 9415
     Shape of augmentation charge: BESSEL
     Using radial grid of 1095 points,  4 beta functions with:
                l(1) =   0
                l(2) =   0
                l(3) =   1
                l(4) =   1
     Q(r) pseudized with 0 coefficients

     atomic species   valence    mass     pseudopotential
        Ti            12.00    47.86700     Ti( 1.00)
        Sn            14.00   118.71000     Sn( 1.00)
        O              6.00    15.99900     O ( 1.00)

      8 Sym. Ops. (no inversion) found

   Cartesian axes

     site n.     atom                  positions (alat units)
         1           Sn  tau(   1) = (   0.0000000   0.0000000   1.1669814  )
         2           Ti  tau(   2) = (   0.5022700   0.5022700   0.6398993  )
         3           O   tau(   3) = (   0.5022700   0.5022700   0.1874332  )
         4           O   tau(   4) = (   0.5022700   0.0000000   0.7928384  )
         5           O   tau(   5) = (   0.0000000   0.5022700   0.7928384  )

     number of k points=    75
                       cart. coord. in units 2pi/alat
        k(    1) = (   0.0000000   0.0000000   0.0000000), wk =   0.0039062
        k(    2) = (   0.0000000   0.0000000   0.1007649), wk =   0.0078125
        k(    3) = (   0.0000000   0.0000000   0.2015299), wk =   0.0078125
        k(    4) = (   0.0000000   0.0000000   0.3022948), wk =   0.0078125
        k(    5) = (   0.0000000   0.0000000  -0.4030597), wk =   0.0039062
        k(    6) = (   0.0000000   0.1244351   0.0000000), wk =   0.0156250
        k(    7) = (   0.0000000   0.1244351   0.1007649), wk =   0.0312500
        k(    8) = (   0.0000000   0.1244351   0.2015299), wk =   0.0312500
        k(    9) = (   0.0000000   0.1244351   0.3022948), wk =   0.0312500
        k(   10) = (   0.0000000   0.1244351  -0.4030597), wk =   0.0156250
        k(   11) = (   0.0000000   0.2488701   0.0000000), wk =   0.0156250
        k(   12) = (   0.0000000   0.2488701   0.1007649), wk =   0.0312500
        k(   13) = (   0.0000000   0.2488701   0.2015299), wk =   0.0312500
        k(   14) = (   0.0000000   0.2488701   0.3022948), wk =   0.0312500
        k(   15) = (   0.0000000   0.2488701  -0.4030597), wk =   0.0156250
        k(   16) = (   0.0000000   0.3733052   0.0000000), wk =   0.0156250
        k(   17) = (   0.0000000   0.3733052   0.1007649), wk =   0.0312500
        k(   18) = (   0.0000000   0.3733052   0.2015299), wk =   0.0312500
        k(   19) = (   0.0000000   0.3733052   0.3022948), wk =   0.0312500
        k(   20) = (   0.0000000   0.3733052  -0.4030597), wk =   0.0156250
        k(   21) = (   0.0000000  -0.4977403   0.0000000), wk =   0.0078125
        k(   22) = (   0.0000000  -0.4977403   0.1007649), wk =   0.0156250
        k(   23) = (   0.0000000  -0.4977403   0.2015299), wk =   0.0156250
        k(   24) = (   0.0000000  -0.4977403   0.3022948), wk =   0.0156250
        k(   25) = (   0.0000000  -0.4977403  -0.4030597), wk =   0.0078125
        k(   26) = (   0.1244351   0.1244351   0.0000000), wk =   0.0156250
        k(   27) = (   0.1244351   0.1244351   0.1007649), wk =   0.0312500
        k(   28) = (   0.1244351   0.1244351   0.2015299), wk =   0.0312500
        k(   29) = (   0.1244351   0.1244351   0.3022948), wk =   0.0312500
        k(   30) = (   0.1244351   0.1244351  -0.4030597), wk =   0.0156250
        k(   31) = (   0.1244351   0.2488701   0.0000000), wk =   0.0312500
        k(   32) = (   0.1244351   0.2488701   0.1007649), wk =   0.0625000
        k(   33) = (   0.1244351   0.2488701   0.2015299), wk =   0.0625000
        k(   34) = (   0.1244351   0.2488701   0.3022948), wk =   0.0625000
        k(   35) = (   0.1244351   0.2488701  -0.4030597), wk =   0.0312500
        k(   36) = (   0.1244351   0.3733052   0.0000000), wk =   0.0312500
        k(   37) = (   0.1244351   0.3733052   0.1007649), wk =   0.0625000
        k(   38) = (   0.1244351   0.3733052   0.2015299), wk =   0.0625000
        k(   39) = (   0.1244351   0.3733052   0.3022948), wk =   0.0625000
        k(   40) = (   0.1244351   0.3733052  -0.4030597), wk =   0.0312500
        k(   41) = (   0.1244351  -0.4977403   0.0000000), wk =   0.0156250
        k(   42) = (   0.1244351  -0.4977403   0.1007649), wk =   0.0312500
        k(   43) = (   0.1244351  -0.4977403   0.2015299), wk =   0.0312500
        k(   44) = (   0.1244351  -0.4977403   0.3022948), wk =   0.0312500
        k(   45) = (   0.1244351  -0.4977403  -0.4030597), wk =   0.0156250
        k(   46) = (   0.2488701   0.2488701   0.0000000), wk =   0.0156250
        k(   47) = (   0.2488701   0.2488701   0.1007649), wk =   0.0312500
        k(   48) = (   0.2488701   0.2488701   0.2015299), wk =   0.0312500
        k(   49) = (   0.2488701   0.2488701   0.3022948), wk =   0.0312500
        k(   50) = (   0.2488701   0.2488701  -0.4030597), wk =   0.0156250
        k(   51) = (   0.2488701   0.3733052   0.0000000), wk =   0.0312500
        k(   52) = (   0.2488701   0.3733052   0.1007649), wk =   0.0625000
        k(   53) = (   0.2488701   0.3733052   0.2015299), wk =   0.0625000
        k(   54) = (   0.2488701   0.3733052   0.3022948), wk =   0.0625000
        k(   55) = (   0.2488701   0.3733052  -0.4030597), wk =   0.0312500
        k(   56) = (   0.2488701  -0.4977403   0.0000000), wk =   0.0156250
        k(   57) = (   0.2488701  -0.4977403   0.1007649), wk =   0.0312500
        k(   58) = (   0.2488701  -0.4977403   0.2015299), wk =   0.0312500
        k(   59) = (   0.2488701  -0.4977403   0.3022948), wk =   0.0312500
        k(   60) = (   0.2488701  -0.4977403  -0.4030597), wk =   0.0156250
        k(   61) = (   0.3733052   0.3733052   0.0000000), wk =   0.0156250
        k(   62) = (   0.3733052   0.3733052   0.1007649), wk =   0.0312500
        k(   63) = (   0.3733052   0.3733052   0.2015299), wk =   0.0312500
        k(   64) = (   0.3733052   0.3733052   0.3022948), wk =   0.0312500
        k(   65) = (   0.3733052   0.3733052  -0.4030597), wk =   0.0156250
        k(   66) = (   0.3733052  -0.4977403   0.0000000), wk =   0.0156250
        k(   67) = (   0.3733052  -0.4977403   0.1007649), wk =   0.0312500
        k(   68) = (   0.3733052  -0.4977403   0.2015299), wk =   0.0312500
        k(   69) = (   0.3733052  -0.4977403   0.3022948), wk =   0.0312500
        k(   70) = (   0.3733052  -0.4977403  -0.4030597), wk =   0.0156250
        k(   71) = (  -0.4977403  -0.4977403   0.0000000), wk =   0.0039062
        k(   72) = (  -0.4977403  -0.4977403   0.1007649), wk =   0.0078125
        k(   73) = (  -0.4977403  -0.4977403   0.2015299), wk =   0.0078125
        k(   74) = (  -0.4977403  -0.4977403   0.3022948), wk =   0.0078125
        k(   75) = (  -0.4977403  -0.4977403  -0.4030597), wk =   0.0039062

     Check: negative core charge=   -0.000003

     Initial potential from superposition of free atoms

     starting charge   43.99766, renormalised to   44.00000
     Starting wfcs are   31 randomized atomic wfcs
     Checking if some PAW data can be deallocated...

     Self-consistent Calculation

     iteration #  1     ecut=    50.00 Ry     beta= 0.70
     Davidson diagonalization with overlap
     ethr =  1.00E-02,  avg # of iterations =  1.0

     total energy              =    -749.55075049 Ry
     estimated scf accuracy    <       2.11899772 Ry

[...]

     total energy              =    -750.80902302 Ry
     estimated scf accuracy    <          9.3E-09 Ry

     iteration # 21     ecut=    50.00 Ry     beta= 0.70
     Davidson diagonalization with overlap
     ethr =  1.34E-11,  avg # of iterations =  5.3

     End of self-consistent calculation

          k = 0.0000 0.0000 0.0000 (  2769 PWs)   bands (ev):

   -47.9546 -24.3799 -24.2052 -24.2052 -11.5234 -11.3888 -11.3887 -11.3859
   -11.3859  -9.4512  -8.0984  -7.7228   3.0995   4.4856   4.4856   6.0019
     6.1957   6.1957   6.2939   6.7890   7.2817   7.2817

[...]

          k = 0.3733-0.4977-0.4031 (  2800 PWs)   bands (ev):

[...]

          k =-0.4977-0.4977 0.0000 (  2824 PWs)   bands (ev):

[...]

          k =-0.4977-0.4977-0.4031 (  2784 PWs)   bands (ev):

   -47.9508 -24.3749 -24.2718 -24.2718 -11.4853 -11.4853 -11.4311 -11.3755
   -11.3577  -8.1611  -8.1611  -7.6048   1.7986   3.8411   4.3472   4.3472
     4.9936   5.5917   6.5180   7.3600   7.3600   8.0035

     highest occupied level (ev):     9.4296

!    total energy              =    -750.80902302 Ry

     total all-electron energy =    -14514.173642 Ry
     estimated scf accuracy    <          9.2E-11 Ry

     The total energy is the sum of the following terms:
     one-electron contribution =    -135.31086948 Ry
     hartree contribution      =      86.91133486 Ry
     xc contribution           =     -68.34718417 Ry
     ewald contribution        =    -247.85371142 Ry
     one-center paw contrib.   =    -386.20859280 Ry

     convergence has been achieved in  21 iterations

     Forces acting on atoms (cartesian axes, Ry/au):

     atom    1 type  2   force =     0.00000000    0.00000000   -0.00098468
     atom    2 type  1   force =     0.00000000    0.00000000   -0.00140387
     atom    3 type  3   force =     0.00000000    0.00000000    0.00045108
     atom    4 type  3   force =     0.00000000    0.00000000    0.00096874
     atom    5 type  3   force =     0.00000000    0.00000000    0.00096874

     Total force =     0.002241     Total SCF correction =     0.000026

     Computing stress (Cartesian axis) and pressure

          total   stress  (Ry/bohr**3)                   (kbar)     P=        0.55
   0.00000141   0.00000000   0.00000000            0.21        0.00        0.00
   0.00000000   0.00000141   0.00000000            0.00        0.21        0.00
   0.00000000   0.00000000   0.00000836            0.00        0.00        1.23

     Writing output data file ./SnTiO3.save/

     General routines

     Parallel routines

   This run was terminated on:  16:48:16   9Nov2021

   JOB DONE.